NAME : ClusterId_195 
COMMENT : (Gillet and Johnson) 
TYPE : CVRP 
DIMENSION : 4 
EDGE_WEIGHT_TYPE : EUC_2D 
CAPACITY : 80 
NODE_COORD_SECTION 
195 6405 16411 
138 3950 -9695 
129 2074 -9281 
130 172 -8835 
DEMAND_SECTION 
195 550
138 12
129 25
130 26
DEPOT_SECTION 
195
 -1
EOF